p cnf 24 24
-1 -2 10 22 0 
-3 5 22 0 
-3 5 23 0 
-4 -5 3 23 0 
-6 8 -5 3 22 0 
-7 14 -3 5 24 0 
-8 6 -3 5 22 0 
-9 -3 5 22 0 
-5 3 23 0 
-6 8 22 0 
-10 2 -11 23 0 
-4 -5 3 -12 15 17 18 19 20 21 23 0 
-6 8 23 0 
-4 -6 8 -13 16 23 0 
-14 7 -6 8 -15 12 17 18 19 20 21 23 0 
-14 7 -5 3 -16 13 23 0 
-4 -5 3 -17 12 15 18 19 20 21 23 0 
-6 8 -16 13 -18 12 15 17 19 20 21 23 0 
-14 7 -5 3 -19 12 15 17 18 20 21 23 0 
-6 8 -5 3 -20 12 15 17 18 19 21 23 0 
-14 7 -6 8 23 0 
-4 -5 3 22 0 
-14 7 -6 8 22 0 
-4 -5 3 -21 12 15 17 18 19 20 23 0 
